Academic license - for non-commercial use only - expires 2022-11-10
Using license file /home/benedond/Apps/gurobi/gurobi950/gurobi.lic
Using gurobi.env file
Set parameter Threads to value 1
Changed value of parameter TimeLimit to 1200.0
   Prev: inf  Min: 0.0  Max: inf  Default: inf
Gurobi Optimizer version 9.1.2 build v9.1.2rc0 (linux64)
Thread count: 2 physical cores, 4 logical processors, using up to 1 threads
Optimize a model with 1398 rows, 1277 columns and 6107 nonzeros
Model fingerprint: 0x2651de2c
Variable types: 48 continuous, 1229 integer (1229 binary)
Coefficient statistics:
  Matrix range     [2e-01, 4e+02]
  Objective range  [1e-02, 4e-01]
  Bounds range     [1e+00, 1e+00]
  RHS range        [1e+00, 1e+03]
Presolve removed 301 rows and 76 columns
Presolve time: 0.04s
Presolved: 1097 rows, 1201 columns, 5499 nonzeros
Variable types: 47 continuous, 1154 integer (1154 binary)

Root relaxation: objective 2.254887e+00, 1107 iterations, 0.02 seconds

    Nodes    |    Current Node    |     Objective Bounds      |     Work
 Expl Unexpl |  Obj  Depth IntInf | Incumbent    BestBd   Gap | It/Node Time

     0     0    2.25489    0  131          -    2.25489      -     -    0s
H    0     0                       4.6754034    2.25489  51.8%     -    0s
H    0     0                       3.4838740    2.25489  35.3%     -    0s
     0     0    2.45601    0  102    3.48387    2.45601  29.5%     -    0s
     0     0    2.46740    0  125    3.48387    2.46740  29.2%     -    0s
     0     0    2.52834    0  143    3.48387    2.52834  27.4%     -    0s
H    0     0                       3.4743446    2.52834  27.2%     -    0s
     0     0    2.52945    0  121    3.47434    2.52945  27.2%     -    0s
     0     0    2.52947    0  116    3.47434    2.52947  27.2%     -    0s
     0     0    2.61809    0  121    3.47434    2.61809  24.6%     -    0s
     0     0    2.63849    0  117    3.47434    2.63849  24.1%     -    0s
     0     0    2.65134    0  112    3.47434    2.65134  23.7%     -    0s
     0     0    2.65625    0  133    3.47434    2.65625  23.5%     -    0s
     0     0    2.65651    0  147    3.47434    2.65651  23.5%     -    0s
     0     0    2.65651    0  146    3.47434    2.65651  23.5%     -    0s
     0     0    2.72178    0  137    3.47434    2.72178  21.7%     -    0s
     0     0    2.73290    0  128    3.47434    2.73290  21.3%     -    0s
     0     0    2.73585    0  131    3.47434    2.73585  21.3%     -    0s
     0     0    2.73714    0  135    3.47434    2.73714  21.2%     -    0s
     0     0    2.73735    0  137    3.47434    2.73735  21.2%     -    0s
     0     0    2.74731    0  150    3.47434    2.74731  20.9%     -    0s
     0     0    2.74960    0  146    3.47434    2.74960  20.9%     -    0s
     0     0    2.75053    0  130    3.47434    2.75053  20.8%     -    0s
     0     0    2.75061    0  149    3.47434    2.75061  20.8%     -    0s
     0     0    2.76250    0  185    3.47434    2.76250  20.5%     -    0s
     0     0    2.76497    0  194    3.47434    2.76497  20.4%     -    0s
     0     0    2.76521    0  195    3.47434    2.76521  20.4%     -    0s
     0     0    2.78083    0  150    3.47434    2.78083  20.0%     -    0s
     0     0    2.78183    0  129    3.47434    2.78183  19.9%     -    0s
     0     0    2.78246    0  131    3.47434    2.78246  19.9%     -    0s
     0     0    2.78285    0  167    3.47434    2.78285  19.9%     -    0s
     0     0    2.79051    0  158    3.47434    2.79051  19.7%     -    0s
     0     0    2.79433    0  166    3.47434    2.79433  19.6%     -    0s
     0     0    2.79517    0  174    3.47434    2.79517  19.5%     -    0s
     0     0    2.79540    0  171    3.47434    2.79540  19.5%     -    0s
     0     0    2.80327    0  152    3.47434    2.80327  19.3%     -    0s
     0     0    2.80404    0  164    3.47434    2.80404  19.3%     -    0s
     0     0    2.80442    0  175    3.47434    2.80442  19.3%     -    0s
     0     0    2.81087    0  177    3.47434    2.81087  19.1%     -    0s
     0     0    2.81208    0  165    3.47434    2.81208  19.1%     -    0s
     0     0    2.81217    0  171    3.47434    2.81217  19.1%     -    0s
     0     0    2.81643    0  148    3.47434    2.81643  18.9%     -    0s
     0     0    2.81735    0  162    3.47434    2.81735  18.9%     -    0s
     0     0    2.81759    0  137    3.47434    2.81759  18.9%     -    0s
     0     0    2.82017    0  163    3.47434    2.82017  18.8%     -    0s
     0     0    2.82017    0  161    3.47434    2.82017  18.8%     -    1s
H    0     0                       3.3419244    2.82017  15.6%     -    1s
H    0     0                       3.2246807    2.82017  12.5%     -    1s
     0     2    2.82024    0  158    3.22468    2.82024  12.5%     -    1s
   371   287    3.12462   28   52    3.22468    2.84744  11.7%   120    5s
H  607   393                       3.2234370    2.90007  10.0%  94.9    9s
   612   396    3.06032   19  181    3.22344    2.90112  10.0%  94.1   10s
H  614   376                       3.2136470    2.90154  9.71%   115   10s
   715   391    3.13773   24   40    3.21365    2.91020  9.44%   127   15s
H 1075   442                       3.2107395    2.94162  8.38%   116   18s
  1192   470    3.01408   29  137    3.21074    2.94882  8.16%   118   20s
  1683   538    3.16197   41  129    3.21074    2.96617  7.62%   118   25s
H 1907   621                       3.2009244    2.98153  6.85%   118   27s
H 1908   620                       3.1996807    2.98232  6.79%   118   27s
  2073   660    3.11197   35  118    3.19968    2.98850  6.60%   119   30s
  2609   876    3.04289   22   94    3.19968    3.00534  6.07%   116   35s
  3227  1075    3.11926   34  122    3.19968    3.02140  5.57%   112   40s
H 3317  1081                       3.1935462    3.02343  5.33%   112   41s
  3888  1237     cutoff   35         3.19355    3.03909  4.84%   109   45s
H 3941  1224                       3.1858067    3.04085  4.55%   109   45s
H 4452  1148                       3.1697983    3.05362  3.67%   108   50s
  5273  1209     cutoff   60         3.16980    3.07852  2.88%   103   55s
  5946  1160    3.15414   31  101    3.16980    3.09385  2.40%  99.0   60s
  6892  1066    3.12048   26   94    3.16980    3.11471  1.74%  93.6   65s
  8557   128     cutoff   47         3.16980    3.16001  0.31%  83.5   70s

Cutting planes:
  Cover: 81
  Implied bound: 9
  Clique: 9
  MIR: 190
  StrongCG: 2
  Flow cover: 418
  Inf proof: 2
  RLT: 13
  Relax-and-lift: 217

Explored 8687 nodes (723840 simplex iterations) in 70.16 seconds
Thread count was 1 (of 4 available processors)

Solution count 10: 3.1698 3.18581 3.19355 ... 3.34192

Optimal solution found (tolerance 1.00e-04)
Best objective 3.169798329635e+00, best bound 3.169538737611e+00, gap 0.0082%
